NAME : 10_3_3_1_(18).dat
COMMENT : Henke, Speranza, Wäscher, 2015
TYPE : MCVRP
DIMENSION : 11
EDGE_WEIGHT_TYPE : DISTANCE_MATRIX
CAPACITY : 1000
VEHICLES : 3
PRODUCT TYPES : 3
COMPARTMENTS : 3
NODE_COORD_SECTION
1 50 50
2 11.77 3.19
3 77.39 62.38
4 78.87 8.64
5 26.21 93.53
6 33.27 2.91
7 0.35 91
8 0.06 14.66
9 99.56 38.9
10 11.26 80.21
11 75.56 53.31
DEMAND_SECTION
1 0 0 0
2 131 0 0
3 38 0 0
4 14 0 0
5 0 0 148
6 0 0 174
7 0 484 0
8 74 0 0
9 173 0 0
10 177 0 0
11 199 0 0
DEPOT_SECTION
1
EOF